% The MIT License (MIT)
%
% Permission is hereby granted, free of charge, to any person obtaining a copy
% of this software and associated documentation files (the "Software"), to deal
% in the Software without restriction, including without limitation the rights
% to use, copy, modify, merge, publish, distribute, sublicense, and/or sell
% copies of the Software, and to permit persons to whom the Software is
% furnished to do so, subject to the following conditions:
%
% The above copyright notice and this permission notice shall be included in
% all copies or substantial portions of the Software.
%
% THE SOFTWARE IS PROVIDED "AS IS", WITHOUT WARRANTY OF ANY KIND, EXPRESS OR
% IMPLIED, INCLUDING BUT NOT LIMITED TO THE WARRANTIES OF MERCHANTABILITY,
% FITNESS FOR A PARTICULAR PURPOSE AND NONINFRINGEMENT. IN NO EVENT SHALL THE
% AUTHORS OR COPYRIGHT HOLDERS BE LIABLE FOR ANY CLAIM, DAMAGES OR OTHER
% LIABILITY, WHETHER IN AN ACTION OF CONTRACT, TORT OR OTHERWISE, ARISING FROM,
% OUT OF OR IN CONNECTION WITH THE SOFTWARE OR THE USE OR OTHER DEALINGS IN
% THE SOFTWARE.

% Vehicle Routing Problem Instance
num_vehicles = 4;
num_customers = 14;
vehicle_capacities = [500, 500, 500, 250];
predicted_demands = [0, 3, 15, 23, 13, 3, 4, 2, 13, 17, 24, 9, 19, 16, 20];
predicted_ETAs = 
  [| 0, 20, 42, 64, 68, 55, 61, 75, 44, 44, 42, 56, 56, 44, 58
   | 20, 0, 54, 47, 27, 51, 30, 38, 37, 77, 57, 56, 61, 34, 37
   | 42, 54, 0, 29, 44, 36, 40, 35, 52, 50, 55, 73, 38, 56, 37
   | 64, 47, 29, 0, 42, 48, 72, 33, 44, 42, 55, 55, 26, 61, 59
   | 68, 27, 44, 42, 0, 36, 38, 53, 26, 41, 19, 70, 61, 44, 55
   | 55, 51, 36, 48, 36, 0, 40, 41, 65, 46, 50, 48, 35, 56, 44
   | 61, 30, 40, 72, 38, 40, 0, 54, 34, 50, 39, 33, 49, 39, 72
   | 75, 38, 35, 33, 53, 41, 54, 0, 25, 46, 65, 51, 52, 51, 49
   | 44, 37, 52, 44, 26, 65, 34, 25, 0, 59, 48, 50, 81, 60, 31
   | 44, 77, 50, 42, 41, 46, 50, 46, 59, 0, 33, 66, 21, 48, 72
   | 42, 57, 55, 55, 19, 50, 39, 65, 48, 33, 0, 45, 58, 37, 50
   | 56, 56, 73, 55, 70, 48, 33, 51, 50, 66, 45, 0, 69, 71, 42
   | 56, 61, 38, 26, 61, 35, 49, 52, 81, 21, 58, 69, 0, 62, 59
   | 44, 34, 56, 61, 44, 56, 39, 51, 60, 48, 37, 71, 62, 0, 59
   | 58, 37, 37, 59, 55, 44, 72, 49, 31, 72, 50, 42, 59, 59, 0 |];
